&CONTROL
  calculation = 'vc-relax'
  etot_conv_thr =   1.0600000000d-05
  forc_conv_thr =   1.0000000000d-04
  outdir = './out/'
  prefix = 'aiida_vc_relax_LS'
  pseudo_dir = '../../pseudo/'
  tprnfor = .true.
  tstress = .true.
  verbosity = 'high'
  nstep = 200
  restart_mode = 'from_scratch'
/

&SYSTEM
  ecutrho =   1080
  ecutwfc =   90
  ibrav = 0
  nat = 106
  nosym = .false.
  ntyp = 5
  vdw_corr = 'grimme-d3'
  dftd3_version = 4
/

&ELECTRONS
  diagonalization = 'david'
  startingwfc = 'atomic+random'
  conv_thr =   1.000000000d-08
  electron_maxstep = 300
  mixing_beta =   3.0000000000d-01
/

&IONS
  ion_dynamics = 'bfgs'
  trust_radius_ini = 0.10
  trust_radius_max = 0.30
/

&CELL
  cell_dynamics = 'bfgs'
  press = 3
  press_conv_thr = 0.01
  cell_dofree = 'all'
/

ATOMIC_SPECIES
C      12.0107 C.pbe-n-kjpaw_psl.1.0.0.UPF
Fe     55.845 Fe.pbe-spn-kjpaw_psl.0.2.1.UPF
H      1.00794 H_ONCV_PBE-1.0.oncvpsp.upf
N      14.0067 N.oncvpsp.upf
O      15.9994 O.pbe-n-kjpaw_psl.0.1.UPF

CELL_PARAMETERS (angstrom)
  11.550563065  -4.542224500  -0.552182610
  11.550563065   4.542224500  -0.552182610
  -5.371860552   0.000000000  10.820459106

ATOMIC_POSITIONS (crystal)
C                0.6993889691        0.0872403055        0.6065554678
C                0.9127596945        0.3006110309        0.8934445322
C                0.3006110309        0.9127596945        0.3934445322
C                0.0872403055        0.6993889691        0.1065554678
H                0.6507750970        0.0967973156        0.6694847736
H                0.9032026844        0.3492249030        0.8305152264
H                0.3492249030        0.9032026844        0.3305152264
H                0.0967973156        0.6507750970        0.1694847736
C                0.7735702660        0.9495583431        0.5123397463
C                0.0504416569        0.2264297340       -0.0123397463
C                0.2264297340        0.0504416569        0.4876602537
C                0.9495583431        0.7735702660        1.0123397463
H                0.7799593297        0.8538506282        0.5033599498
H                0.1461493718        0.2200406703       -0.0033599498
H                0.2200406703        0.1461493718        0.4966400502
H                0.8538506282        0.7799593297        1.0033599498
C                0.8330348739        0.9407074403        0.4314889725
C                0.0592925597        0.1669651261        0.0685110275
C                0.1669651261        0.0592925597        0.5685110275
C                0.9407074403        0.8330348739        0.9314889725
H                0.8928264778        0.8339323357        0.3579804721
H                0.1660676643        0.1071735222        0.1420195279
H                0.1071735222        0.1660676643        0.6420195279
H                0.8339323357        0.8928264778        0.8579804721
C                0.8135678879        0.0715292733        0.4458721029
C                0.9284707267        0.1864321121        0.0541278971
C                0.1864321121        0.9284707267        0.5541278971
C                0.0715292733        0.8135678879        0.9458721029
H                0.8546500022        0.0718484628        0.3834283202
H                0.9281515372        0.1453499978        0.1165716798
H                0.1453499978        0.9281515372        0.6165716798
H                0.0718484628        0.8546500022        0.8834283202
C                0.7377895587        0.2066529074        0.5416570046
C                0.7933470926        0.2622104413        0.9583429954
C                0.2622104413        0.7933470926        0.4583429954
C                0.2066529074        0.7377895587        0.0416570046
C                0.7078170511        0.3502115790        0.5647144048
C                0.6497884210        0.2921829489        0.9352855952
C                0.2921829489        0.6497884210        0.4352855952
C                0.3502115790        0.7078170511        0.0647144048
H                0.7365906184        0.3674568626        0.5045102665
H                0.6325431374        0.2634093816        0.9954897335
H                0.2634093816        0.6325431374        0.4954897335
H                0.3674568626        0.7365906184        0.0045102665
C                0.5897130050        0.6120287036        0.7054895867
C                0.3879712964        0.4102869950        0.7945104133
C                0.4102869950        0.3879712964        0.2945104133
C                0.6120287036        0.5897130050        0.2054895867
C                0.5099268383        0.7018099006        0.8103871412
C                0.2981900994        0.4900731617        0.6896128588
C                0.4900731617        0.2981900994        0.1896128588
C                0.7018099006        0.5099268383        0.3103871412
C                0.4546246164        0.8599058487        0.8654273602
C                0.1400941513        0.5453753836        0.6345726398
C                0.5453753836        0.1400941513        0.1345726398
C                0.8599058487        0.4546246164        0.3654273602
H                0.3900324183        0.9310831837        0.9425255151
H                0.0689168163        0.6099675817        0.5574744849
H                0.6099675817        0.0689168163        0.0574744849
H                0.9310831837        0.3900324183        0.4425255151
C                0.4840188019        0.9203611682        0.8223968686
C                0.0796388318        0.5159811981        0.6776031314
C                0.5159811981        0.0796388318        0.1776031314
C                0.9203611682        0.4840188019        0.3223968686
H                0.4417671133        0.0411973645        0.8640281210
H                0.9588026355        0.5582328867        0.6359718790
H                0.5582328867        0.9588026355        0.1359718790
H                0.0411973645        0.4417671133        0.3640281210
C                0.5670692400        0.8266281570        0.7215814219
C                0.1733718430        0.4329307600        0.7784185781
C                0.4329307600        0.1733718430        0.2784185781
C                0.8266281570        0.5670692400        0.2215814219
C                0.6176790733        0.6735210789        0.6611368498
C                0.3264789211        0.3823209267        0.8388631502
C                0.3823209267        0.3264789211        0.3388631502
C                0.6735210789        0.6176790733        0.1611368498
H                0.6777697589        0.6059073975        0.5818568099
H                0.3940926025        0.3222302411        0.9181431901
H                0.3222302411        0.3940926025        0.4181431901
H                0.6059073975        0.6777697589        0.0818568099
N                0.6828583002        0.2128676576        0.6228549528
N                0.7871323424        0.3171416998        0.8771450472
N                0.3171416998        0.7871323424        0.3771450472
N                0.2128676576        0.6828583002        0.1228549528
N                0.6354344818        0.4605185799        0.6601646083
N                0.5394814201        0.3645655182        0.8398353917
N                0.3645655182        0.5394814201        0.3398353917
N                0.4605185799        0.6354344818        0.1601646083
N                0.6033758707        0.8877330498        0.6813367739
N                0.1122669502        0.3966241293        0.8186632261
N                0.3966241293        0.1122669502        0.3186632261
N                0.8877330498        0.6033758707        0.1813367739
O                0.4914227952        0.6362818007        0.8503529503
O                0.3637181993        0.5085772048        0.6496470497
O                0.5085772048        0.3637181993        0.1496470497
O                0.6362818007        0.4914227952        0.3503529503
O                0.5713345686        0.0186451294        0.7439493098
O                0.9813548706        0.4286654314        0.7560506902
O                0.4286654314        0.9813548706        0.2560506902
O                0.0186451294        0.5713345686        0.2439493098
O                0.6682025626        0.8081206460        0.5869937079
O                0.1918793540        0.3317974374        0.9130062921
O                0.3317974374        0.1918793540        0.4130062921
O                0.8081206460        0.6682025626        0.0869937079
Fe               0.5861066400        0.4138933600        0.7500000000
Fe               0.4138933600        0.5861066400        0.2500000000

K_POINTS automatic
3 3 2 0 0 0

Hubbard atomic
 U Fe-3d 2.35