&CONTROL
  calculation = 'vc-relax'
  etot_conv_thr =   1.0600000000d-05
  forc_conv_thr =   1.0000000000d-04
  outdir = './out/'
  prefix = 'aiida_vc_relax_HS'
  pseudo_dir = '../../pseudo/'
  tprnfor = .true.
  tstress = .true.
  verbosity = 'high'
  nstep = 200
  restart_mode = 'from_scratch'
/

&SYSTEM
  ecutrho =   1080
  ecutwfc =   90
  nspin =  2
  starting_magnetization(2) =  4
  tot_magnetization = 8
  ibrav = 0
  nat = 106
  nosym = .false.
  ntyp = 5
  vdw_corr = 'grimme-d3'
  dftd3_version = 4
/

&ELECTRONS
  diagonalization = 'david'
  startingwfc = 'atomic+random'
  conv_thr =   1.000000000d-08
  electron_maxstep = 300
  mixing_beta =   3.0000000000d-01
/

&IONS
  ion_dynamics = 'bfgs'
  trust_radius_ini = 0.10
  trust_radius_max = 0.30
/

&CELL
  cell_dynamics = 'bfgs'
  press = 14
  press_conv_thr = 0.01
  cell_dofree = 'all'
/

ATOMIC_SPECIES
C      12.0107 C.pbe-n-kjpaw_psl.1.0.0.UPF
Fe     55.845 Fe.pbe-spn-kjpaw_psl.0.2.1.UPF
H      1.00794 H_ONCV_PBE-1.0.oncvpsp.upf
N      14.0067 N.oncvpsp.upf
O      15.9994 O.pbe-n-kjpaw_psl.0.1.UPF

CELL_PARAMETERS (angstrom)
  11.687156278  -4.425488323  -0.081208108
  11.687156278   4.425488323  -0.081208108
  -5.004735054   0.000000000  10.915874329

ATOMIC_POSITIONS (crystal)
C                0.6866521949        0.1136693771        0.5829653966
C                0.8863306229        0.3133478051        0.9170346034
C                0.3133478051        0.8863306229        0.4170346034
C                0.1136693771        0.6866521949        0.0829653966
H                0.6371300951        0.1142294773        0.6405470173
H                0.8857705227        0.3628699049        0.8594529827
H                0.3628699049        0.8857705227        0.3594529827
H                0.1142294773        0.6371300951        0.1405470173
C                0.7645704930        0.9844514663        0.4864449081
C                0.0155485337        0.2354295070        0.0135550919
C                0.2354295070        0.0155485337        0.5135550919
C                0.9844514663        0.7645704930        0.9864449081
H                0.7737143091        0.8857876692        0.4698755680
H                0.1142123308        0.2262856909        0.0301244320
H                0.2262856909        0.1142123308        0.5301244320
H                0.8857876692        0.7737143091        0.9698755680
C                0.8265405913        0.9866949659        0.4138982695
C                0.0133050341        0.1734594087        0.0861017305
C                0.1734594087        0.0133050341        0.5861017305
C                0.9866949659        0.8265405913        0.9138982695
H                0.8874430925        0.8875108112        0.3380625960
H                0.1124891888        0.1125569075        0.1619374040
H                0.1125569075        0.1124891888        0.6619374040
H                0.8875108112        0.8874430925        0.8380625960
C                0.8086635937        0.1180909281        0.4403739056
C                0.8819090719        0.1913364063        0.0596260944
C                0.1913364063        0.8819090719        0.5596260944
C                0.1180909281        0.8086635937        0.9403739056
H                0.8526420331        0.1272973585        0.3857075198
H                0.8727026415        0.1473579669        0.1142924802
H                0.1473579669        0.8727026415        0.6142924802
H                0.1272973585        0.8526420331        0.8857075198
C                0.7302901455        0.2426845214        0.5389512279
C                0.7573154786        0.2697098545        0.9610487721
C                0.2697098545        0.7573154786        0.4610487721
C                0.2426845214        0.7302901455        0.0389512279
C                0.7057985059        0.3838285222        0.5703226271
C                0.6161714778        0.2942014941        0.9296773729
C                0.2942014941        0.6161714778        0.4296773729
C                0.3838285222        0.7057985059        0.0703226271
H                0.7525329474        0.3913912336        0.5164467545
H                0.6086087664        0.2474670526        0.9835532455
H                0.2474670526        0.6086087664        0.4835532455
H                0.3913912336        0.7525329474        0.0164467545
C                0.5852697510        0.6419169579        0.7025698378
C                0.3580830421        0.4147302490        0.7974301622
C                0.4147302490        0.3580830421        0.2974301622
C                0.6419169579        0.5852697510        0.2025698378
C                0.4925831085        0.7418137802        0.8028931148
C                0.2581862198        0.5074168915        0.6971068852
C                0.5074168915        0.2581862198        0.1971068852
C                0.7418137802        0.4925831085        0.3028931148
C                0.4521336746        0.8904215602        0.8580669759
C                0.1095784398        0.5478663254        0.6419330241
C                0.5478663254        0.1095784398        0.1419330241
C                0.8904215602        0.4521336746        0.3580669759
H                0.3803427733        0.9686896378        0.9322929712
H                0.0313103622        0.6196572267        0.5677070288
H                0.6196572267        0.0313103622        0.0677070288
H                0.9686896378        0.3803427733        0.4322929712
C                0.5001838206        0.9361325971        0.8173708019
C                0.0638674029        0.4998161794        0.6826291981
C                0.4998161794        0.0638674029        0.1826291981
C                0.9361325971        0.5001838206        0.3173708019
H                0.4681840347        0.0500368138        0.8593614503
H                0.9499631862        0.5318159653        0.6406385497
H                0.5318159653        0.9499631862        0.1406385497
H                0.0500368138        0.4681840347        0.3593614503
C                0.5864976566        0.8381822653        0.7173571180
C                0.1618177347        0.4135023434        0.7826428820
C                0.4135023434        0.1618177347        0.2826428820
C                0.8381822653        0.5864976566        0.2173571180
C                0.6272470502        0.6924376085        0.6587290225
C                0.3075623915        0.3727529498        0.8412709775
C                0.3727529498        0.3075623915        0.3412709775
C                0.6924376085        0.6272470502        0.1587290225
H                0.6906811978        0.6213031396        0.5800858691
H                0.3786968604        0.3093188022        0.9199141309
H                0.3093188022        0.3786968604        0.4199141309
H                0.6213031396        0.6906811978        0.0800858691
N                0.6697663879        0.2399100337        0.6093068673
N                0.7600899663        0.3302336121        0.8906931327
N                0.3302336121        0.7600899663        0.3906931327
N                0.2399100337        0.6697663879        0.1093068673
N                0.6230951029        0.4974533632        0.6585328923
N                0.5025466368        0.3769048971        0.8414671077
N                0.3769048971        0.5025466368        0.3414671077
N                0.4974533632        0.6230951029        0.1585328923
N                0.6317393128        0.8900983154        0.6741939182
N                0.1099016846        0.3682606872        0.8258060818
N                0.3682606872        0.1099016846        0.3258060818
N                0.8900983154        0.6317393128        0.1741939182
O                0.4484759780        0.6959483924        0.8385981247
O                0.3040516076        0.5515240220        0.6614018753
O                0.5515240220        0.3040516076        0.1614018753
O                0.6959483924        0.4484759780        0.3385981247
O                0.6164765301        0.0072819501        0.7389207792
O                0.9927180499        0.3835234699        0.7610792208
O                0.3835234699        0.9927180499        0.2610792208
O                0.0072819501        0.6164765301        0.2389207792
O                0.6856747030        0.8169306602        0.5747143971
O                0.1830693398        0.3143252970        0.9252856029
O                0.3143252970        0.1830693398        0.4252856029
O                0.8169306602        0.6856747030        0.0747143971
Fe               0.5385336929        0.4614663071        0.7500000000
Fe               0.4614663071        0.5385336929        0.2500000000

K_POINTS automatic
3 3 2 0 0 0

Hubbard atomic
 U Fe-3d 2.35