&CONTROL
  calculation = 'relax'
  forc_conv_thr =   1.0000000000d-05
  outdir = './out/'
  prefix = 'aiida_relax_LS'
  pseudo_dir = './pseudo/'
  tprnfor = .true.
  tstress = .true.
  verbosity = 'high'
  nstep = 200
  restart_mode = 'from_scratch'
/

&SYSTEM
  ecutrho =   1080
  ecutwfc =   90
  ibrav = 0
  nat = 106
  nosym = .false.
  ntyp = 5
  vdw_corr = 'grimme-d3'
  dftd3_version = 4
/

&ELECTRONS
  diagonalization = 'david'
  startingwfc = 'atomic+random'
  conv_thr =   1.000000000d-09
  electron_maxstep = 300
  mixing_beta =   3.0000000000d-01
/

&IONS
  upscale = 10
  ion_dynamics = 'bfgs'
  trust_radius_ini = 0.10
  trust_radius_max = 0.30
/
ATOMIC_SPECIES
C      12.0107 C.pbe-n-kjpaw_psl.1.0.0.UPF
Fe     55.845 Fe.pbe-spn-kjpaw_psl.0.2.1.UPF
H      1.00794 H_ONCV_PBE-1.0.oncvpsp.upf
N      14.0067 N.oncvpsp.upf
O      15.9994 O.pbe-n-kjpaw_psl.0.1.UPF

ATOMIC_POSITIONS crystal
C            0.6907800000       0.1127800000       0.5806000000
C            0.8872200000       0.3092200000       0.9194000000
C            0.3092200000       0.8872200000       0.4194000000
C            0.1127800000       0.6907800000       0.0806000000
H            0.6507000000       0.1081000000       0.6283000000
H            0.8919000000       0.3493000000       0.8717000000
H            0.3493000000       0.8919000000       0.3717000000
H            0.1081000000       0.6507000000       0.1283000000
C            0.7648900000       0.9894900000       0.4857000000
C            0.0105100000       0.2351100000       0.0143000000
C            0.2351100000       0.0105100000       0.5143000000
C            0.9894900000       0.7648900000       0.9857000000
H            0.7758000000       0.9028000000       0.4702000000
H            0.0972000000       0.2242000000       0.0298000000
H            0.2242000000       0.0972000000       0.5298000000
H            0.9028000000       0.7758000000       0.9702000000
C            0.8227400000       0.9949400000       0.4136000000
C            0.0050600000       0.1772600000       0.0864000000
C            0.1772600000       0.0050600000       0.5864000000
C            0.9949400000       0.8227400000       0.9136000000
H            0.8737000000       0.9123000000       0.3483000000
H            0.0877000000       0.1263000000       0.1517000000
H            0.1263000000       0.0877000000       0.6517000000
H            0.9123000000       0.8737000000       0.8483000000
C            0.8041000000       0.1261000000       0.4396000000
C            0.8739000000       0.1959000000       0.0604000000
C            0.1959000000       0.8739000000       0.5604000000
C            0.1261000000       0.8041000000       0.9396000000
H            0.8416000000       0.1332000000       0.3914000000
H            0.8668000000       0.1584000000       0.1086000000
H            0.1584000000       0.8668000000       0.6086000000
H            0.1332000000       0.8416000000       0.8914000000
C            0.7301000000       0.2449000000       0.5372000000
C            0.7551000000       0.2699000000       0.9628000000
C            0.2699000000       0.7551000000       0.4628000000
C            0.2449000000       0.7301000000       0.0372000000
C            0.7057100000       0.3865100000       0.5712000000
C            0.6134900000       0.2942900000       0.9288000000
C            0.2942900000       0.6134900000       0.4288000000
C            0.3865100000       0.7057100000       0.0712000000
H            0.7469000000       0.3973000000       0.5304000000
H            0.6027000000       0.2531000000       0.9696000000
H            0.2531000000       0.6027000000       0.4696000000
H            0.3973000000       0.7469000000       0.0304000000
C            0.5893300000       0.6395300000       0.7045000000
C            0.3604700000       0.4106700000       0.7955000000
C            0.4106700000       0.3604700000       0.2955000000
C            0.6395300000       0.5893300000       0.2045000000
C            0.4998500000       0.7340500000       0.8033000000
C            0.2659500000       0.5001500000       0.6967000000
C            0.5001500000       0.2659500000       0.1967000000
C            0.7340500000       0.4998500000       0.3033000000
C            0.4592000000       0.8806000000       0.8587000000
C            0.1194000000       0.5408000000       0.6413000000
C            0.5408000000       0.1194000000       0.1413000000
C            0.8806000000       0.4592000000       0.3587000000
H            0.4006000000       0.9454000000       0.9236000000
H            0.0546000000       0.5994000000       0.5764000000
H            0.5994000000       0.0546000000       0.0764000000
H            0.9454000000       0.4006000000       0.4236000000
C            0.5050700000       0.9284700000       0.8178000000
C            0.0715300000       0.4949300000       0.6822000000
C            0.4949300000       0.0715300000       0.1822000000
C            0.9284700000       0.5050700000       0.3178000000
H            0.4796000000       0.0244000000       0.8561000000
H            0.9756000000       0.5204000000       0.6439000000
H            0.5204000000       0.9756000000       0.1439000000
H            0.0244000000       0.4796000000       0.3561000000
C            0.5892600000       0.8348600000       0.7198000000
C            0.1651400000       0.4107400000       0.7802000000
C            0.4107400000       0.1651400000       0.2802000000
C            0.8348600000       0.5892600000       0.2198000000
C            0.6304300000       0.6912300000       0.6610000000
C            0.3087700000       0.3695700000       0.8390000000
C            0.3695700000       0.3087700000       0.3390000000
C            0.6912300000       0.6304300000       0.1610000000
H            0.6846000000       0.6308000000       0.5938000000
H            0.3692000000       0.3154000000       0.9062000000
H            0.3154000000       0.3692000000       0.4062000000
H            0.6308000000       0.6846000000       0.0938000000
N            0.6723800000       0.2401800000       0.6092000000
N            0.7598200000       0.3276200000       0.8908000000
N            0.3276200000       0.7598200000       0.3908000000
N            0.2401800000       0.6723800000       0.1092000000
N            0.6262500000       0.4948500000       0.6585700000
N            0.5051500000       0.3737500000       0.8414300000
N            0.3737500000       0.5051500000       0.3414300000
N            0.4948500000       0.6262500000       0.1585700000
N            0.6339100000       0.8895100000       0.6761000000
N            0.1104900000       0.3660900000       0.8239000000
N            0.3660900000       0.1104900000       0.3239000000
N            0.8895100000       0.6339100000       0.1761000000
O            0.4574500000       0.6850500000       0.8391100000
O            0.3149500000       0.5425500000       0.6608900000
O            0.5425500000       0.3149500000       0.1608900000
O            0.6850500000       0.4574500000       0.3391100000
O            0.6169900000       0.0047900000       0.7408000000
O            0.9952100000       0.3830100000       0.7592000000
O            0.3830100000       0.9952100000       0.2592000000
O            0.0047900000       0.6169900000       0.2408000000
O            0.6860700000       0.8198700000       0.5784000000
O            0.1801300000       0.3139300000       0.9216000000
O            0.3139300000       0.1801300000       0.4216000000
O            0.8198700000       0.6860700000       0.0784000000
Fe           0.5394000000       0.4606000000       0.7500000000
Fe           0.4606000000       0.5394000000       0.2500000000

K_POINTS automatic
3 3 2 0 0 0

CELL_PARAMETERS angstrom
     11.6335000000      -4.4510000000       0.0000000000
     11.6335000000       4.4510000000       0.0000000000
     -4.9051679257       0.0000000000      10.9155126595

Hubbard atomic
 U Fe-3d 2.35